(set-logic QF_S)
(declare-fun var0 () String)
(assert (RegexIn var0 (RegexConcat (RegexUnion (RegexStar (Str2Reg "0")) (RegexStar (Str2Reg "11"))) (RegexConcat (RegexPlus (RegexUnion (Str2Reg "22") (Str2Reg "33"))) (RegexConcat (RegexPlus (RegexStar (Str2Reg "4"))) (RegexConcat (RegexPlus (RegexUnion (Str2Reg "55") (Str2Reg "666"))) (RegexConcat (RegexUnion (RegexPlus (Str2Reg "777")) (RegexPlus (Str2Reg "8"))) (RegexConcat (RegexPlus (RegexPlus (Str2Reg "99"))) (RegexConcat (RegexUnion (RegexUnion (Str2Reg "aaa") (Str2Reg "bb")) (RegexUnion (Str2Reg "cc") (Str2Reg "d"))) (RegexConcat (RegexStar (RegexPlus (Str2Reg "eee"))) (RegexConcat (RegexUnion (RegexStar (Str2Reg "ff")) (RegexStar (Str2Reg "g"))) (RegexConcat (RegexUnion (RegexPlus (Str2Reg "h")) (RegexPlus (Str2Reg "i"))) (RegexConcat (RegexPlus (RegexStar (Str2Reg "j"))) (RegexConcat (RegexStar (RegexPlus (Str2Reg "kkk"))) (RegexConcat (RegexStar (RegexPlus (Str2Reg "lll"))) (RegexConcat (RegexUnion (RegexPlus (Str2Reg "m")) (RegexPlus (Str2Reg "nnn"))) (RegexConcat (RegexPlus (RegexStar (Str2Reg "o"))) (RegexConcat (RegexPlus (RegexPlus (Str2Reg "pp"))) (RegexConcat (RegexPlus (RegexStar (Str2Reg "q"))) (RegexConcat (RegexStar (RegexUnion (Str2Reg "r") (Str2Reg "sss"))) (RegexConcat (RegexUnion (RegexPlus (Str2Reg "tt")) (RegexPlus (Str2Reg "u"))) (RegexConcat (RegexPlus (RegexPlus (Str2Reg "vv"))) (RegexConcat (RegexStar (RegexStar (Str2Reg "ww"))) (RegexConcat (RegexUnion (RegexUnion (Str2Reg "x") (Str2Reg "y")) (RegexUnion (Str2Reg "zzz") (Str2Reg "AAA"))) (RegexConcat (RegexUnion (RegexStar (Str2Reg "BBB")) (RegexStar (Str2Reg "CC"))) (RegexConcat (RegexPlus (RegexPlus (Str2Reg "D"))) (RegexConcat (RegexStar (RegexStar (Str2Reg "EE"))) (RegexConcat (RegexUnion (RegexPlus (Str2Reg "FFF")) (RegexPlus (Str2Reg "G"))) (RegexConcat (RegexUnion (RegexStar (Str2Reg "HH")) (RegexStar (Str2Reg "II"))) (RegexConcat (RegexPlus (RegexStar (Str2Reg "JJJ"))) (RegexConcat (RegexUnion (RegexUnion (Str2Reg "KKK") (Str2Reg "LL")) (RegexUnion (Str2Reg "MM") (Str2Reg "N"))) (RegexConcat (RegexPlus (RegexPlus (Str2Reg "OOO"))) (RegexConcat (RegexStar (RegexStar (Str2Reg "PPP"))) (RegexConcat (RegexPlus (RegexStar (Str2Reg "Q"))) (RegexConcat (RegexPlus (RegexPlus (Str2Reg "R"))) (RegexConcat (RegexUnion (RegexUnion (Str2Reg "S") (Str2Reg "T")) (RegexUnion (Str2Reg "U") (Str2Reg "VV"))) (RegexConcat (RegexPlus (RegexPlus (Str2Reg "WWW"))) (RegexConcat (RegexUnion (RegexUnion (Str2Reg "XX") (Str2Reg "Y")) (RegexUnion (Str2Reg "ZZZ") (Str2Reg "!"))) (RegexConcat (RegexStar (RegexPlus (Str2Reg "\"\""))) (RegexConcat (RegexUnion (RegexPlus (Str2Reg "###")) (RegexPlus (Str2Reg "$$$"))) (RegexConcat (RegexStar (RegexPlus (Str2Reg "%%"))) (RegexConcat (RegexStar (RegexUnion (Str2Reg "&") (Str2Reg "''"))) (RegexConcat (RegexPlus (RegexStar (Str2Reg "((("))) (RegexConcat (RegexPlus (RegexPlus (Str2Reg ")))"))) (RegexConcat (RegexPlus (RegexStar (Str2Reg "**"))) (RegexConcat (RegexUnion (RegexPlus (Str2Reg "++")) (RegexPlus (Str2Reg ","))) (RegexConcat (RegexStar (RegexStar (Str2Reg "---"))) (RegexConcat (RegexPlus (RegexUnion (Str2Reg "..") (Str2Reg "//"))) (RegexConcat (RegexPlus (RegexUnion (Str2Reg ":::") (Str2Reg ";"))) (RegexConcat (RegexUnion (RegexStar (Str2Reg "<<")) (RegexStar (Str2Reg "==="))) (RegexConcat (RegexUnion (RegexPlus (Str2Reg ">>")) (RegexPlus (Str2Reg "??"))) (RegexConcat (RegexStar (RegexPlus (Str2Reg "@@@"))) (RegexConcat (RegexPlus (RegexUnion (Str2Reg "[") (Str2Reg "\\\\"))) (RegexConcat (RegexPlus (RegexPlus (Str2Reg "]]]"))) (RegexConcat (RegexStar (RegexPlus (Str2Reg "^^^"))) (RegexConcat (RegexPlus (RegexStar (Str2Reg "___"))) (RegexConcat (RegexStar (RegexPlus (Str2Reg "`"))) (RegexConcat (RegexUnion (RegexPlus (Str2Reg "{{{")) (RegexPlus (Str2Reg "|"))) (RegexConcat (RegexUnion (RegexPlus (Str2Reg "}")) (RegexPlus (Str2Reg "~"))) (RegexConcat (RegexPlus (RegexUnion (Str2Reg "000") (Str2Reg "1"))) (RegexConcat (RegexUnion (RegexStar (Str2Reg "2")) (RegexStar (Str2Reg "33"))) (RegexConcat (RegexPlus (RegexPlus (Str2Reg "44"))) (RegexConcat (RegexPlus (RegexUnion (Str2Reg "55") (Str2Reg "666"))) (RegexConcat (RegexUnion (RegexStar (Str2Reg "77")) (RegexStar (Str2Reg "888"))) (RegexConcat (RegexStar (RegexStar (Str2Reg "99"))) (RegexConcat (RegexPlus (RegexStar (Str2Reg "a"))) (RegexConcat (RegexStar (RegexStar (Str2Reg "bb"))) (RegexConcat (RegexStar (RegexUnion (Str2Reg "ccc") (Str2Reg "ddd"))) (RegexConcat (RegexUnion (RegexUnion (Str2Reg "eee") (Str2Reg "fff")) (RegexUnion (Str2Reg "ggg") (Str2Reg "hhh"))) (RegexConcat (RegexPlus (RegexUnion (Str2Reg "i") (Str2Reg "jjj"))) (RegexConcat (RegexStar (RegexUnion (Str2Reg "kk") (Str2Reg "l"))) (RegexConcat (RegexUnion (RegexUnion (Str2Reg "mm") (Str2Reg "nn")) (RegexUnion (Str2Reg "oo") (Str2Reg "ppp"))) (RegexConcat (RegexPlus (RegexPlus (Str2Reg "qqq"))) (RegexConcat (RegexUnion (RegexPlus (Str2Reg "rr")) (RegexPlus (Str2Reg "sss"))) (RegexConcat (RegexPlus (RegexUnion (Str2Reg "t") (Str2Reg "uu"))) (RegexConcat (RegexStar (RegexUnion (Str2Reg "v") (Str2Reg "ww"))) (RegexConcat (RegexPlus (RegexPlus (Str2Reg "xxx"))) (RegexConcat (RegexUnion (RegexPlus (Str2Reg "y")) (RegexPlus (Str2Reg "zz"))) (RegexConcat (RegexPlus (RegexPlus (Str2Reg "AA"))) (RegexConcat (RegexUnion (RegexUnion (Str2Reg "BB") (Str2Reg "CC")) (RegexUnion (Str2Reg "D") (Str2Reg "EEE"))) (RegexConcat (RegexStar (RegexUnion (Str2Reg "F") (Str2Reg "GGG"))) (RegexConcat (RegexUnion (RegexStar (Str2Reg "HH")) (RegexStar (Str2Reg "II"))) (RegexConcat (RegexStar (RegexStar (Str2Reg "JJJ"))) (RegexConcat (RegexUnion (RegexUnion (Str2Reg "KKK") (Str2Reg "LL")) (RegexUnion (Str2Reg "MM") (Str2Reg "NNN"))) (RegexConcat (RegexStar (RegexPlus (Str2Reg "OO"))) (RegexConcat (RegexStar (RegexStar (Str2Reg "PPP"))) (RegexConcat (RegexPlus (RegexPlus (Str2Reg "QQ"))) (RegexStar (RegexPlus (Str2Reg "R"))))))))))))))))))))))))))))))))))))))))))))))))))))))))))))))))))))))))))))))))))))))))))
(assert (not (RegexIn var0 (RegexConcat (RegexPlus (RegexUnion (Str2Reg "0") (Str2Reg "111"))) (RegexConcat (RegexStar (RegexStar (Str2Reg "222"))) (RegexConcat (RegexUnion (RegexUnion (Str2Reg "333") (Str2Reg "4")) (RegexUnion (Str2Reg "5") (Str2Reg "66"))) (RegexConcat (RegexStar (RegexUnion (Str2Reg "7") (Str2Reg "888"))) (RegexConcat (RegexUnion (RegexStar (Str2Reg "9")) (RegexStar (Str2Reg "aaa"))) (RegexConcat (RegexStar (RegexPlus (Str2Reg "bbb"))) (RegexConcat (RegexStar (RegexUnion (Str2Reg "c") (Str2Reg "dd"))) (RegexConcat (RegexUnion (RegexStar (Str2Reg "e")) (RegexStar (Str2Reg "fff"))) (RegexConcat (RegexUnion (RegexStar (Str2Reg "gg")) (RegexStar (Str2Reg "hhh"))) (RegexConcat (RegexUnion (RegexPlus (Str2Reg "i")) (RegexPlus (Str2Reg "jjj"))) (RegexConcat (RegexUnion (RegexUnion (Str2Reg "kkk") (Str2Reg "l")) (RegexUnion (Str2Reg "mm") (Str2Reg "nn"))) (RegexConcat (RegexUnion (RegexPlus (Str2Reg "oo")) (RegexPlus (Str2Reg "ppp"))) (RegexConcat (RegexStar (RegexPlus (Str2Reg "q"))) (RegexConcat (RegexUnion (RegexUnion (Str2Reg "rr") (Str2Reg "ss")) (RegexUnion (Str2Reg "tt") (Str2Reg "uu"))) (RegexConcat (RegexUnion (RegexUnion (Str2Reg "vv") (Str2Reg "www")) (RegexUnion (Str2Reg "x") (Str2Reg "yyy"))) (RegexConcat (RegexStar (RegexUnion (Str2Reg "zzz") (Str2Reg "AA"))) (RegexConcat (RegexPlus (RegexPlus (Str2Reg "BB"))) (RegexConcat (RegexUnion (RegexPlus (Str2Reg "CC")) (RegexPlus (Str2Reg "DDD"))) (RegexConcat (RegexPlus (RegexUnion (Str2Reg "EEE") (Str2Reg "FFF"))) (RegexConcat (RegexStar (RegexStar (Str2Reg "GG"))) (RegexConcat (RegexPlus (RegexUnion (Str2Reg "HH") (Str2Reg "II"))) (RegexConcat (RegexPlus (RegexPlus (Str2Reg "JJ"))) (RegexConcat (RegexStar (RegexStar (Str2Reg "K"))) (RegexConcat (RegexStar (RegexUnion (Str2Reg "L") (Str2Reg "MM"))) (RegexConcat (RegexPlus (RegexPlus (Str2Reg "NN"))) (RegexConcat (RegexPlus (RegexUnion (Str2Reg "O") (Str2Reg "PPP"))) (RegexConcat (RegexUnion (RegexPlus (Str2Reg "Q")) (RegexPlus (Str2Reg "RRR"))) (RegexConcat (RegexStar (RegexUnion (Str2Reg "SSS") (Str2Reg "T"))) (RegexConcat (RegexUnion (RegexUnion (Str2Reg "U") (Str2Reg "VV")) (RegexUnion (Str2Reg "WWW") (Str2Reg "X"))) (RegexConcat (RegexUnion (RegexPlus (Str2Reg "Y")) (RegexPlus (Str2Reg "ZZZ"))) (RegexConcat (RegexUnion (RegexPlus (Str2Reg "!")) (RegexPlus (Str2Reg "\"\"\""))) (RegexConcat (RegexStar (RegexPlus (Str2Reg "##"))) (RegexConcat (RegexPlus (RegexPlus (Str2Reg "$$$"))) (RegexConcat (RegexUnion (RegexStar (Str2Reg "%%%")) (RegexStar (Str2Reg "&"))) (RegexConcat (RegexStar (RegexPlus (Str2Reg "''"))) (RegexConcat (RegexUnion (RegexUnion (Str2Reg "((") (Str2Reg ")))")) (RegexUnion (Str2Reg "*") (Str2Reg "+++"))) (RegexConcat (RegexPlus (RegexStar (Str2Reg ",,,"))) (RegexConcat (RegexUnion (RegexPlus (Str2Reg "--")) (RegexPlus (Str2Reg ".."))) (RegexConcat (RegexUnion (RegexStar (Str2Reg "//")) (RegexStar (Str2Reg ":::"))) (RegexConcat (RegexStar (RegexUnion (Str2Reg ";") (Str2Reg "<<<"))) (RegexConcat (RegexUnion (RegexStar (Str2Reg "===")) (RegexStar (Str2Reg ">>"))) (RegexConcat (RegexPlus (RegexPlus (Str2Reg "?"))) (RegexConcat (RegexUnion (RegexUnion (Str2Reg "@") (Str2Reg "[[[")) (RegexUnion (Str2Reg "\\") (Str2Reg "]]]"))) (RegexConcat (RegexStar (RegexUnion (Str2Reg "^") (Str2Reg "___"))) (RegexConcat (RegexPlus (RegexStar (Str2Reg "``"))) (RegexConcat (RegexStar (RegexUnion (Str2Reg "{") (Str2Reg "||"))) (RegexConcat (RegexUnion (RegexStar (Str2Reg "}}}")) (RegexStar (Str2Reg "~~"))) (RegexConcat (RegexPlus (RegexUnion (Str2Reg "000") (Str2Reg "11"))) (RegexConcat (RegexPlus (RegexPlus (Str2Reg "2"))) (RegexConcat (RegexStar (RegexUnion (Str2Reg "33") (Str2Reg "444"))) (RegexConcat (RegexStar (RegexStar (Str2Reg "5"))) (RegexConcat (RegexUnion (RegexUnion (Str2Reg "6") (Str2Reg "777")) (RegexUnion (Str2Reg "888") (Str2Reg "99"))) (RegexConcat (RegexUnion (RegexUnion (Str2Reg "aaa") (Str2Reg "b")) (RegexUnion (Str2Reg "ccc") (Str2Reg "d"))) (RegexConcat (RegexStar (RegexUnion (Str2Reg "ee") (Str2Reg "fff"))) (RegexConcat (RegexStar (RegexUnion (Str2Reg "gg") (Str2Reg "h"))) (RegexConcat (RegexPlus (RegexPlus (Str2Reg "i"))) (RegexConcat (RegexStar (RegexPlus (Str2Reg "jjj"))) (RegexConcat (RegexStar (RegexPlus (Str2Reg "kk"))) (RegexConcat (RegexStar (RegexPlus (Str2Reg "lll"))) (RegexConcat (RegexUnion (RegexStar (Str2Reg "mmm")) (RegexStar (Str2Reg "nnn"))) (RegexConcat (RegexUnion (RegexStar (Str2Reg "o")) (RegexStar (Str2Reg "pp"))) (RegexConcat (RegexPlus (RegexUnion (Str2Reg "q") (Str2Reg "rr"))) (RegexConcat (RegexPlus (RegexUnion (Str2Reg "sss") (Str2Reg "t"))) (RegexConcat (RegexUnion (RegexStar (Str2Reg "u")) (RegexStar (Str2Reg "v"))) (RegexConcat (RegexStar (RegexStar (Str2Reg "ww"))) (RegexConcat (RegexStar (RegexPlus (Str2Reg "xx"))) (RegexConcat (RegexUnion (RegexStar (Str2Reg "yy")) (RegexStar (Str2Reg "zz"))) (RegexConcat (RegexUnion (RegexUnion (Str2Reg "AA") (Str2Reg "BBB")) (RegexUnion (Str2Reg "C") (Str2Reg "D"))) (RegexConcat (RegexStar (RegexUnion (Str2Reg "EEE") (Str2Reg "F"))) (RegexConcat (RegexStar (RegexPlus (Str2Reg "GGG"))) (RegexConcat (RegexStar (RegexUnion (Str2Reg "HH") (Str2Reg "III"))) (RegexConcat (RegexPlus (RegexUnion (Str2Reg "J") (Str2Reg "KK"))) (RegexConcat (RegexStar (RegexPlus (Str2Reg "LLL"))) (RegexConcat (RegexStar (RegexUnion (Str2Reg "MM") (Str2Reg "NN"))) (RegexConcat (RegexStar (RegexStar (Str2Reg "OOO"))) (RegexConcat (RegexStar (RegexUnion (Str2Reg "PPP") (Str2Reg "QQ"))) (RegexConcat (RegexUnion (RegexStar (Str2Reg "R")) (RegexStar (Str2Reg "SS"))) (RegexConcat (RegexUnion (RegexPlus (Str2Reg "TTT")) (RegexPlus (Str2Reg "UUU"))) (RegexConcat (RegexStar (RegexStar (Str2Reg "VVV"))) (RegexConcat (RegexPlus (RegexStar (Str2Reg "WW"))) (RegexConcat (RegexStar (RegexUnion (Str2Reg "XX") (Str2Reg "YYY"))) (RegexConcat (RegexStar (RegexStar (Str2Reg "ZZZ"))) (RegexConcat (RegexStar (RegexStar (Str2Reg "!!!"))) (RegexConcat (RegexStar (RegexUnion (Str2Reg "\"\"") (Str2Reg "#"))) (RegexConcat (RegexUnion (RegexUnion (Str2Reg "$$$") (Str2Reg "%")) (RegexUnion (Str2Reg "&&") (Str2Reg "''"))) (RegexUnion (RegexUnion (Str2Reg "((") (Str2Reg ")")) (RegexUnion (Str2Reg "***") (Str2Reg "+")))))))))))))))))))))))))))))))))))))))))))))))))))))))))))))))))))))))))))))))))))))))))))
(check-sat)